 vasp.6.1.0 28Jan20 (build Feb 21 2020 14:22:58) complex

 executed on       BelugaAllIntel date 2022.08.07  13:06:02

 INCAR:
 POTCAR:    PAW_PBE C 08Apr2002
|           W    W    AA    RRRRR   N    N  II  N    N   GGGG   !!!           |
|           W    W   A  A   R    R  NN   N  II  NN   N  G    G  !!!           |
|           W    W  A    A  R    R  N N  N  II  N N  N  G       !!!           |
|           W WW W  AAAAAA  RRRRR   N  N N  II  N  N N  G  GGG   !            |
|           WW  WW  A    A  R   R   N   NN  II  N   NN  G    G                |
|           W    W  A    A  R    R  N    N  II  N    N   GGGG   !!!           |
|     For optimal performance we recommend to set                             |
|       NCORE = 4 - approx SQRT(number of cores).                             |
|     This setting can greatly improve the performance of VASP for DFT.       |
|     The default, NCORE=1 might be grossly inefficient on modern             |
|     multi-core architectures or massively parallel machines. Do your        |
|     own testing!!!!                                                         |
|     Unfortunately you need to use the default for GW and RPA                |
|     calculations (for HF NCORE is supported but not extensively tested      |
|     yet).                                                                   |

 POTCAR:    PAW_PBE C 08Apr2002
   VRHFIN =C: s2p2

   TITEL  = PAW_PBE C 08Apr2002
   POMASS =   12.011; ZVAL   =    4.000    mass and valenz
   ENMAX  =  400.000; ENMIN  =  300.000 eV

 Optimization of the real space projectors (new method)

 maximal supplied QI-value         = 25.13
 optimisation between [QCUT,QGAM] = [ 11.56, 23.12] = [ 37.43,149.72] Ry
 Optimized for a Real-space Cutoff    1.04 Angstroem

   l    n(q)    QCUT    max X(q) W(low)/X(q) W(high)/X(q)  e(spline)
   0      7    11.561   115.676    0.20E-03    0.60E-03    0.21E-06
   0      7    11.561    87.132    0.20E-03    0.59E-03    0.21E-06
   1      7    11.561     4.429    0.23E-03    0.35E-03    0.15E-06
   1      7    11.561     2.733    0.18E-03    0.25E-03    0.12E-06
  PAW_PBE C 08Apr2002                   :

 POSCAR: Primitive Cell
  positions in direct lattice
 exchange correlation table for  LEXCH =        8
   RHO(1)=    0.500       N(1)  =     2000
   RHO(2)=  100.500       N(2)  =     4000

 ion  position               nearest neighbor table
   1  0.093  0.215  0.000-  54 1.40   2 1.43   3 1.47
   2  0.030  0.278  0.000-  21 1.40   1 1.43   5 1.47
   3  0.222  0.300  0.000-   4 1.42  44 1.44   1 1.47
   4  0.225  0.411  0.000-   6 1.36   3 1.42   5 1.42
   5  0.114  0.407  0.000-   4 1.42  42 1.44   2 1.47
   6  0.330  0.515  0.000-   4 1.36   7 1.42  10 1.42
   7  0.441  0.519  0.000-   6 1.42  51 1.44   8 1.47
   8  0.526  0.648  0.000-  11 1.40   9 1.43   7 1.47
   9  0.462  0.711  0.000-  14 1.40   8 1.43  10 1.47
  10  0.334  0.626  0.000-   6 1.42  47 1.44   9 1.47
  11  0.650  0.708  0.000-   8 1.40  39 1.40  12 1.44
  12  0.715  0.837  0.000-  15 1.42  13 1.42  11 1.44
  13  0.651  0.900  0.000-  12 1.42  16 1.42  14 1.44
  14  0.523  0.836  0.000-  19 1.40   9 1.40  13 1.44
  15  0.841  0.900  0.000-  12 1.42  24 1.42  41 1.44
  16  0.715  0.026  0.000-  20 1.42  13 1.42  17 1.44
  17  0.650  0.090  0.000-  23 1.40  18 1.40  16 1.44
  18  0.526  0.026  0.000-  17 1.40  19 1.43  30 1.47
  19  0.462  0.900  0.000-  14 1.40  18 1.43  32 1.47
  20  0.841  0.089  0.000-  24 1.42  16 1.42  21 1.44
  21  0.905  0.218  0.000-   2 1.40  22 1.40  20 1.44
  22  0.841  0.278  0.000-  21 1.40  23 1.43  33 1.47
  23  0.714  0.215  0.000-  17 1.40  22 1.43  35 1.47
  24  0.904  0.026  0.000-  20 1.42  15 1.42  54 1.44
  25  0.030  0.900  0.000-  41 1.40  26 1.43  27 1.47
  26  0.093  0.026  0.000-  54 1.40  25 1.43  29 1.47
  27  0.114  0.856  0.000-  28 1.42  45 1.44  25 1.47
  28  0.225  0.963  0.000-  31 1.36  27 1.42  29 1.42
  29  0.222  0.070  0.000-  28 1.42  43 1.44  26 1.47
  30  0.441  0.070  0.000-  31 1.42  50 1.44  18 1.47
  31  0.330  0.963  0.000-  28 1.36  32 1.42  30 1.42
  32  0.334  0.856  0.000-  31 1.42  46 1.44  19 1.47
  33  0.885  0.407  0.000-  34 1.42  48 1.44  22 1.47
  34  0.778  0.411  0.000-  36 1.36  33 1.42  35 1.42
  35  0.671  0.300  0.000-  34 1.42  49 1.44  23 1.47
  36  0.778  0.515  0.000-  34 1.36  40 1.42  37 1.42
  37  0.885  0.626  0.000-  36 1.42  53 1.44  38 1.47
  38  0.841  0.711  0.000-  41 1.40  39 1.43  37 1.47
  39  0.714  0.648  0.000-  11 1.40  38 1.43  40 1.47
  40  0.671  0.519  0.000-  36 1.42  52 1.44  39 1.47
  41  0.905  0.836  0.000-  25 1.40  38 1.40  15 1.44
  42  0.111  0.516  0.000-   5 1.44  48 1.48  47 1.48
  43  0.330  0.182  0.000-  29 1.44  44 1.48  50 1.48
  44  0.330  0.296  0.000-   3 1.44  43 1.48  51 1.48
  45  0.111  0.744  0.000-  27 1.44  53 1.48  46 1.48
  46  0.225  0.744  0.000-  32 1.44  47 1.48  45 1.48
  47  0.225  0.630  0.000-  10 1.44  46 1.48  42 1.48
  48  0.997  0.516  0.000-  33 1.44  42 1.48  53 1.48
  49  0.558  0.296  0.000-  35 1.44  50 1.48  52 1.48
  50  0.445  0.182  0.000-  30 1.44  49 1.48  43 1.48
  51  0.445  0.410  0.000-   7 1.44  52 1.48  44 1.48
  52  0.558  0.410  0.000-  40 1.44  51 1.48  49 1.48
  53  0.997  0.630  0.000-  37 1.44  45 1.48  48 1.48
  54  0.032  0.090  0.000-   1 1.40  26 1.40  24 1.44

  LATTYP: Found a hexagonal cell.
 ALAT       =    12.9891243600
 C/A-ratio  =     0.7698748370

  Lattice vectors:

 A1 = (  12.9890874866,   0.0000000000,   0.0000000000)
 A2 = (  -6.4945433800,  11.2489221033,   0.0000000000)
 A3 = (   0.0000000000,   0.0000000000,  10.0000000000)

Analysis of symmetry for initial positions (statically):
 Subroutine PRICEL returns:
 Original cell was already a primitive cell.

 Routine SETGRP: Setting up the symmetry group for a
 hexagonal supercell.

 Subroutine GETGRP returns: Found  2 space group operations
 (whereof  2 operations were pure point group operations)
 out of a pool of 24 trial point group operations.

The static configuration has the point symmetry C_1h.

Analysis of symmetry for dynamics (positions and initial velocities):
 Subroutine PRICEL returns:
 Original cell was already a primitive cell.

 Routine SETGRP: Setting up the symmetry group for a
 hexagonal supercell.

 Subroutine GETGRP returns: Found  2 space group operations
 (whereof  2 operations were pure point group operations)
 out of a pool of 24 trial point group operations.

The dynamic configuration has the point symmetry C_1h.

 Subroutine INISYM returns: Found  2 space group operations
 (whereof  2 operations are pure point group operations),
 and found     1 'primitive' translations

                                     Primitive cell

  volume of cell :    1461.1323

  direct lattice vectors                    reciprocal lattice vectors
    12.989087487  0.000000000  0.000000000     0.076987702  0.044448701  0.000000000
    -6.494543380 11.248922103  0.000000000     0.000000000  0.088897406  0.000000000
     0.000000000  0.000000000 10.000000000     0.000000000  0.000000000  0.100000000

  length of vectors
    12.989087487 12.989123997 10.000000000     0.088897656  0.088897406  0.100000000

  position of ions in fractional coordinates (direct lattice)
     0.093237898  0.215077342  0.000000000
     0.029872252  0.278423241  0.000000000
     0.221554302  0.299670472  0.000000000
     0.225464189  0.410667883  0.000000000
     0.114460691  0.406765688  0.000000000
     0.330105922  0.515292274  0.000000000
     0.441086487  0.519182896  0.000000000
     0.525690761  0.647521904  0.000000000
     0.462346337  0.710884189  0.000000000
     0.334033278  0.626296912  0.000000000
     0.650467430  0.708329018  0.000000000
     0.714631141  0.836666149  0.000000000
     0.651490625  0.899829584  0.000000000
     0.523160144  0.835655634  0.000000000
     0.840927684  0.899816349  0.000000000
     0.714641084  0.026151681  0.000000000
     0.650448859  0.090296178  0.000000000
     0.525677270  0.026326044  0.000000000
     0.462347851  0.899611909  0.000000000
     0.840951586  0.089304112  0.000000000
     0.905108946  0.217621284  0.000000000
     0.841121901  0.278404036  0.000000000
     0.714411653  0.215059905  0.000000000
     0.904106900  0.026149383  0.000000000
     0.029834069  0.899599073  0.000000000
     0.093223673  0.026318896  0.000000000
     0.114403791  0.855823045  0.000000000
     0.225418700  0.962894116  0.000000000
     0.221547183  0.070022453  0.000000000
     0.441040674  0.070027255  0.000000000
     0.330051490  0.962896790  0.000000000
     0.334001412  0.855824130  0.000000000
     0.884884188  0.406741761  0.000000000
     0.777787205  0.410650196  0.000000000
     0.670681784  0.299649168  0.000000000
     0.777778078  0.515266306  0.000000000
     0.884883938  0.626274186  0.000000000
     0.841153524  0.710866441  0.000000000
     0.714440399  0.647513458  0.000000000
     0.670684511  0.519175343  0.000000000
     0.905075904  0.835637050  0.000000000
     0.111051815  0.515557039  0.000000000
     0.330308275  0.182269971  0.000000000
     0.330327452  0.296217725  0.000000000
     0.111024463  0.743621301  0.000000000
     0.225225470  0.743619464  0.000000000
     0.225237615  0.629719797  0.000000000
     0.997106496  0.515552374  0.000000000
     0.558468917  0.296207250  0.000000000
     0.444507145  0.182266297  0.000000000
     0.444511983  0.410388387  0.000000000
     0.558462115  0.410381573  0.000000000
     0.997105575  0.629708026  0.000000000
     0.032426975  0.090307064  0.000000000

  ion indices of the primitive-cell ions
   primitive index   ion index
                 1           1
                 2           2
                 3           3
                 4           4
                 5           5
                 6           6
                 7           7
                 8           8
                 9           9
                10          10
                11          11
                12          12
                13          13
                14          14
                15          15
                16          16
                17          17
                18          18
                19          19
                20          20
                21          21
                22          22
                23          23
                24          24
                25          25
                26          26
                27          27
                28          28
                29          29
                30          30
                31          31
                32          32
                33          33
                34          34
                35          35
                36          36
                37          37
                38          38
                39          39
                40          40
                41          41
                42          42
                43          43
                44          44
                45          45
                46          46
                47          47
                48          48
                49          49
                50          50
                51          51
[...]
   52        0.809   1.542   0.000   2.351
   53        0.980   2.432   0.000   3.412
   54        0.958   2.346   0.000   3.304
tot         46.559  97.694   0.000 144.254

         DFTD3 V3.0 Rev 1
 IVDW         = 12
 DF pbe
 parameters
 VDW_S6       =    1.0000
 VDW_S8       =    0.7875
 VDW_A1       =    0.4289
 VDW_A2       =    4.4407
 k1-k3        =   16.0000    1.3333   -4.0000
 VDW_RADIUS   =   50.2022 A
 VDW_CNRADIUS =   21.1671 A
 Edisp (eV)   -4.62489

 E6    (eV) :    -3.1887
 E8    (eV) :    -1.4362
 % E8        : 31.05

  FORCE on cell =-STRESS in cart. coord.  units (eV):
  Direction    XX          YY          ZZ          XY          YZ          ZX
  Alpha Z   163.94122   163.94122   163.94122
  Ewald   16969.54188 16969.75284-24075.02889     0.00743    -0.00000     0.00000
  Hartree 16640.33902 16817.98711-16030.87554   133.80436    -0.00000    -0.00000
  E(xc)    -844.66097  -845.86259  -863.18149    -2.13127     0.00000     0.00000
  Local  -35969.63151-35955.16645 37450.80251    18.24564    -0.00000    -0.00000
  n-local  -213.90339  -204.82485  -233.02402     7.63191     0.00000    -0.00000
  augment   -19.98409   -21.75280   -18.00735    -1.55109     0.00000    -0.00000
  Kinetic  3434.75391  3402.36360  3936.38132   -39.43546    -0.00000     0.00000
  Fock        0.00000     0.00000     0.00000     0.00000     0.00000     0.00000
  vdW        -0.34541    -0.34546    -0.20136     0.00001     0.00000     0.00000
  Total     160.05066   326.09262   330.80641   116.57152     0.00000     0.00000
  in kB     175.50056   357.57076   362.73958   127.82433     0.00000     0.00000

 VOLUME and BASIS-vectors are now :
  energy-cutoff  :      520.00
  volume of cell :     1461.13
      direct lattice vectors                 reciprocal lattice vectors
    12.989087487  0.000000000  0.000000000     0.076987702  0.044448701  0.000000000
    -6.494543380 11.248922103  0.000000000     0.000000000  0.088897406  0.000000000
     0.000000000  0.000000000 10.000000000     0.000000000  0.000000000  0.100000000

  length of vectors
    12.989087487 12.989123997 10.000000000     0.088897656  0.088897406  0.100000000

 FORCES acting on ions
    electron-ion (+dipol)            ewald-force                    non-local-force                 convergence-correction
   -.680E+02 0.341E+02 -.509E-07   0.280E+02 -.148E+02 0.355E-16   -.728E+01 -.301E+01 0.132E-22   0.407E+02 -.150E+02 0.119E-04
   0.784E+02 -.667E+01 -.874E-07   -.267E+02 0.169E+02 -.704E-16   0.509E+01 0.830E+01 0.132E-22   -.432E+02 -.159E+02 0.201E-03
   -.559E+02 0.698E+02 -.161E-06   0.347E+02 -.387E+02 0.683E-16   0.211E+01 0.642E+01 -.414E-24   0.211E+02 -.325E+02 -.387E-04
   -.360E+02 0.304E+02 -.694E-07   0.667E+00 0.118E+01 -.732E-17   -.823E+01 0.158E+02 0.265E-22   0.356E+02 -.368E+02 -.422E-04
   0.136E+03 -.583E+02 0.570E-07   -.508E+02 0.106E+02 0.132E-16   0.124E+02 -.790E+01 0.265E-22   -.817E+02 0.498E+02 -.195E-04
   -.561E+02 0.105E+02 0.110E-06   -.685E+00 -.121E+01 0.435E-16   -.218E+02 -.153E+01 0.662E-23   0.601E+02 -.695E+01 0.188E-04
   -.812E+02 0.227E+01 0.217E-06   0.509E+02 -.107E+02 -.653E-18   -.127E+01 -.226E+01 0.165E-23   0.305E+02 0.606E+01 -.476E-07
   -.106E+03 0.661E+02 0.369E-07   0.268E+02 -.169E+02 0.341E-16   -.145E+02 0.730E+01 -.331E-23   0.763E+02 -.487E+02 -.496E-05
   0.455E+02 -.148E+02 0.132E-06   -.280E+02 0.148E+02 0.711E-16   0.569E+00 0.813E+00 -.662E-23   -.150E+02 -.117E+01 -.904E-05
   0.125E+03 -.681E+02 -.522E-07   -.346E+02 0.386E+02 -.162E-16   0.155E+02 -.478E+01 -.265E-22   -.922E+02 0.295E+02 -.145E-05
   0.118E+02 0.114E+02 -.189E-06   0.330E-01 -.117E+02 0.786E-16   0.273E-01 -.588E+01 -.662E-23   -.975E+01 0.263E+01 -.649E-06
   -.477E+02 0.409E+02 0.150E-06   -.136E-01 -.714E+01 0.429E-16   -.993E+00 0.728E+01 -.397E-22   0.475E+02 -.349E+02 -.112E-05
   0.827E+01 -.415E+02 -.849E-07   -.615E+01 -.350E+01 0.775E-16   -.247E+01 -.111E+02 0.000E+00   0.495E+01 0.418E+02 -.330E-05
   0.647E+02 -.516E+02 -.948E-07   -.101E+02 -.582E+01 -.157E-15   0.163E+02 -.120E+02 0.207E-24   -.591E+02 0.548E+02 -.330E-05
   0.396E+02 -.293E+01 0.111E-06   0.616E+01 -.348E+01 -.105E-15   0.502E+01 -.333E+00 0.331E-23   -.379E+02 0.121E+01 -.163E-05
   0.186E+02 -.197E+02 -.749E-07   -.617E+01 0.353E+01 0.418E-16   -.291E+01 -.217E+01 0.000E+00   -.115E+02 0.200E+02 -.130E-04
   0.226E+02 -.220E+02 0.107E-06   -.101E+02 0.580E+01 0.589E-16   -.500E+01 -.170E+01 0.662E-23   -.541E+01 0.116E+02 -.303E-04
   -.493E+02 -.311E+02 -.222E-07   -.131E+01 0.317E+02 -.487E-16   -.826E+01 0.946E+01 0.000E+00   0.530E+02 -.200E+01 -.233E-04
   -.397E+02 0.399E+02 -.633E-07   -.127E+01 -.316E+02 0.165E-15   0.116E+01 -.161E+01 -.662E-23   0.408E+02 -.124E+02 -.311E-05
   0.351E+02 -.277E+02 -.133E-06   -.424E-02 0.705E+01 -.911E-16   0.170E+01 -.261E+01 0.662E-23   -.269E+02 0.163E+02 0.970E-05
   0.110E+02 -.134E+02 0.772E-07   -.105E-01 0.117E+02 0.258E-18   -.222E+01 0.235E+00 0.827E-24   -.135E+02 0.279E+01 0.631E-04
   -.116E+02 -.337E+02 0.110E-06   0.267E+02 0.169E+02 0.137E-15   -.102E+01 -.488E+00 0.103E-24   -.776E+01 0.116E+02 -.603E-06
   0.341E+02 0.247E+02 0.145E-06   -.280E+02 -.147E+02 0.220E-16   -.439E+01 0.264E+01 0.000E+00   -.442E+00 -.953E+01 0.301E-05
   0.167E+01 -.555E+01 -.235E-07   0.615E+01 0.348E+01 -.201E-16   -.212E+01 0.129E+01 0.662E-23   -.677E+01 0.267E+01 0.487E-05
   -.337E+01 0.233E+02 -.127E-07   0.129E+01 -.315E+02 0.140E-15   -.878E+01 0.328E+01 0.662E-23   0.121E+02 0.288E+00 0.377E-04
   0.283E+01 -.194E+02 0.739E-07   0.126E+01 0.316E+02 -.947E-16   -.200E+01 0.225E+01 0.414E-24   -.224E+01 -.121E+02 -.204E-04
   0.121E+02 0.471E+02 0.613E-07   -.162E+02 -.493E+02 0.255E-15   -.299E+01 -.456E+01 0.000E+00   0.121E+01 0.234E+00 0.102E-04
   0.250E+02 0.125E+02 -.991E-08   0.135E+01 0.449E-01 0.944E-16   0.101E+02 0.106E+02 0.207E-24   -.290E+02 -.110E+02 -.363E-04
   -.636E+01 -.354E+02 0.134E-06   -.161E+02 0.493E+02 0.808E-16   -.320E+01 0.507E+01 0.132E-22   0.204E+02 -.183E+02 -.749E-04
   0.559E+01 -.108E+03 0.117E-06   0.161E+02 0.493E+02 0.670E-16   0.308E+01 -.198E+02 0.662E-23   -.156E+02 0.622E+02 -.444E-05
   0.574E+02 -.205E+02 -.480E-07   -.135E+01 0.336E-01 -.346E-16   0.136E+02 -.231E+01 0.000E+00   -.596E+02 0.197E+02 -.554E-05
   -.662E+02 0.964E+02 -.827E-07   0.162E+02 -.492E+02 -.103E-15   -.153E+02 0.391E+01 0.000E+00   0.559E+02 -.467E+02 -.393E-05
   -.835E+02 0.159E+02 0.423E-07   0.508E+02 0.107E+02 0.254E-15   -.218E+01 0.812E+00 0.000E+00   0.317E+02 -.291E+02 -.711E-05
   0.233E+02 -.286E+02 0.173E-06   -.665E+00 0.114E+01 -.697E-16   0.232E+01 -.538E+01 -.662E-23   -.171E+02 0.167E+02 -.372E-04
   0.613E+02 0.440E+02 -.622E-07   -.347E+02 -.386E+02 0.164E-15   0.359E+01 0.101E+02 0.000E+00   -.194E+02 -.796E+01 0.331E-05
   -.324E+02 -.213E+02 0.102E-07   0.644E+00 -.114E+01 -.474E-16   -.245E+01 -.697E+01 0.000E+00   0.260E+02 0.231E+02 -.441E-05
   -.253E+02 -.361E+02 -.785E-07   0.346E+02 0.386E+02 0.192E-16   0.243E+01 0.809E+01 0.000E+00   -.912E+01 -.643E+00 0.253E-06
   -.562E+02 -.922E+01 -.197E-06   0.280E+02 0.147E+02 0.104E-15   -.125E+02 0.356E+01 0.662E-23   0.339E+02 -.903E+01 -.356E-05
   0.604E+02 0.196E+02 -.454E-07   -.268E+02 -.169E+02 -.307E-16   0.102E+02 -.111E+01 0.000E+00   -.364E+02 -.364E+00 0.476E-05
   0.738E+02 0.147E+02 -.145E-06   -.508E+02 -.107E+02 0.414E-16   0.210E+00 0.396E+01 -.132E-22   -.125E+02 -.764E+01 -.378E-05
   -.146E+02 -.416E+01 -.814E-07   0.101E+02 -.585E+01 -.104E-15   -.441E+01 -.145E-01 0.199E-22   0.582E+01 0.103E+02 -.754E-05
   -.118E+01 -.680E+02 0.262E-06   -.178E+02 0.557E+01 -.141E-15   0.144E+01 0.331E+01 -.827E-24   0.599E+01 0.408E+02 -.788E-06
   -.265E+02 -.490E+01 0.871E-08   -.403E+01 0.182E+02 0.114E-16   -.741E+01 0.374E+00 -.132E-22   0.320E+02 -.111E+02 0.388E-06
   0.292E+02 0.745E+01 0.366E-06   0.138E+02 -.126E+02 0.181E-17   0.129E+02 0.219E+01 -.265E-22   -.434E+02 0.486E+01 0.306E-05
   0.435E+02 -.230E+02 -.817E-07   -.398E+01 -.181E+02 -.254E-16   0.102E+02 -.175E+02 0.000E+00   -.388E+02 0.454E+02 -.538E-05
   -.612E+02 0.836E+02 0.148E-06   0.395E+01 -.181E+02 0.115E-15   -.787E+01 0.128E+02 -.662E-23   0.546E+02 -.688E+02 -.140E-04
   0.590E+02 0.368E+02 -.243E-06   -.137E+02 0.125E+02 0.188E-16   -.173E+01 -.201E+01 -.331E-23   -.324E+02 -.260E+02 -.309E-06
   -.882E+02 0.391E+02 -.106E-06   0.178E+02 0.549E+01 -.103E-15   -.110E+02 0.558E+01 -.331E-23   0.710E+02 -.400E+02 0.761E-05
   -.971E+01 0.450E+02 -.209E-06   -.138E+02 -.127E+02 0.998E-17   0.328E+01 0.278E+01 0.132E-22   0.162E+02 -.263E+02 -.804E-05
   -.157E+02 -.763E+01 0.204E-06   0.403E+01 0.182E+02 -.222E-16   0.284E+01 -.776E+01 0.827E-24   0.540E+01 -.554E+01 -.668E-05
   -.252E+02 -.322E+02 -.423E-06   0.178E+02 -.558E+01 0.378E-16   0.105E+01 -.130E+02 0.000E+00   0.370E+01 0.380E+02 -.131E-03
   0.388E+02 -.171E+02 -.131E-06   -.178E+02 -.557E+01 0.760E-16   -.340E+01 -.790E-02 0.662E-23   -.146E+02 0.166E+02 -.806E-05
   0.307E+02 -.295E+02 0.781E-07   0.136E+02 0.126E+02 -.666E-17   0.158E+02 -.643E+00 0.265E-22   -.475E+02 0.147E+02 0.102E-05
   0.176E+02 -.368E+02 0.154E-06   0.102E+02 0.583E+01 -.174E-16   0.317E+01 -.394E+01 0.662E-23   -.215E+02 0.242E+02 0.100E-05
   0.106E+03 -.839E+02 0.204E-07   0.941E-13 0.115E-12 0.106E-14   -.117E+02 -.424E+01 0.559E-22   -.237E+02 0.314E+02 -.197E-03

 POSITION                                       TOTAL-FORCE (eV/Angst)
     -0.18575      2.41939      0.00000        -7.900954      2.289947      0.000000
     -1.42022      3.13196      0.00000        12.110121      3.684680     -0.000000
      0.93157      3.37097      0.00000         0.730545      6.094576     -0.000000
      0.26147      4.61957      0.00000        -9.189149     11.757915      0.000000
     -1.15502      4.57568      0.00000        14.342357     -4.721473      0.000000
      0.94119      5.79648      0.00000       -19.850061      1.783204     -0.000000
      2.35746      5.84025      0.00000        -2.406024     -3.583871     -0.000000
      2.62288      7.28392      0.00000       -18.595862      8.864237     -0.000000
      1.38859      7.99668      0.00000         1.728187      0.754277      0.000000
      0.27128      7.04517      0.00000        12.568482     -3.685564      0.000000
      3.84870      7.96794      0.00000         0.810930     -2.577165     -0.000000
      3.84864      9.41159      0.00000        -2.502855      7.199114     -0.000000
      2.61829     10.12211      0.00000         3.296529    -13.270797     -0.000000
      1.36817      9.40023      0.00000        10.574604    -13.601749     -0.000000
      5.07899     10.12196      0.00000        11.552784     -4.478297     -0.000000
      9.11269      0.29418      0.00000        -3.296552      2.636290     -0.000000
      7.86230      1.01573      0.00000         0.738267     -5.208734     -0.000000
      6.65709      0.29614      0.00000        -7.092102      9.064647      0.000000
      0.16291     10.11966      0.00000        -0.291402     -4.661738     -0.000000
     10.34320      1.00457      0.00000         8.674999     -5.940331      0.000000
     10.34319      2.44800      0.00000        -6.046876      2.452006     -0.000000
      9.11730      3.13175      0.00000         5.161223     -4.710711     -0.000000
      7.88284      2.41919      0.00000        -0.057693      4.095916     -0.000000
     11.57370      0.29415      0.00000        -2.387113      2.926836     -0.000000
     -5.45497     10.11952      0.00000        -0.129531     -3.689636     -0.000000
      1.03996      0.29606      0.00000        -1.521497      3.492693      0.000000
     -4.07218      9.62709      0.00000        -7.182525     -5.517407      0.000000
     -3.32557     10.83152      0.00000         6.317693     13.130156     -0.000000
      2.42293      0.78768      0.00000        -6.560706      1.782638     -0.000000
      5.27392      0.78773      0.00000         7.824670    -15.469936      0.000000
     -1.96651     10.83155      0.00000         8.643913     -2.054829     -0.000000
     -1.21981      9.62710      0.00000       -10.596466      5.339148      0.000000
      8.85224      4.57541      0.00000        -4.340257     -0.597131     -0.000000
      7.43576      4.61937      0.00000         6.473620    -14.983614     -0.000000
      6.76546      3.37073      0.00000         9.528530      8.510994     -0.000000
      6.75621      5.79619      0.00000        -9.435961     -5.311869      0.000000
      7.42647      7.04491      0.00000         1.329259     11.058434     -0.000000
      6.30906      7.99648      0.00000        -8.144739      1.160582     -0.000000
      5.07462      7.28383      0.00000         5.990112      2.314209     -0.000000
      5.33977      5.84016      0.00000         9.336414      1.335345      0.000000
      6.32903      9.40002      0.00000        -4.471733      1.355829      0.000000
     -1.90585      5.79946      0.00000       -12.861763    -17.304529     -0.000000
      3.10664      2.05034      0.00000        -7.249059      3.590310     -0.000000
      2.36685      3.33213      0.00000        11.132813      2.905695     -0.000000
     -3.38737      8.36494      0.00000         9.616586    -12.096557      0.000000
     -1.90400      8.36492      0.00000       -11.760707     10.453544     -0.000000
     -1.16411      7.08367      0.00000         9.849856     22.394090     -0.000000
      9.60323      5.79941      0.00000       -11.760528     11.175585     -0.000000
      5.33027      3.33201      0.00000        -5.281130      9.824121      0.000000
      4.59001      2.05030      0.00000        -4.750728     -1.667684      0.000000
      3.10852      4.61643      0.00000        -3.852041    -11.725237      0.000000
      4.58867      4.61635      0.00000         1.629696     -5.104664     -0.000000
      8.86183      7.08354      0.00000        11.323875     -1.777024     -0.000000
     -0.16531      1.01586      0.00000         8.229949     -9.686476     -0.000000
    total drift:                               70.379195    -56.693793     -0.000197

  FREE ENERGIE OF THE ION-ELECTRON SYSTEM (eV)
  free  energy   TOTEN  =      -780.61533239 eV

  energy  without entropy=     -780.61533001  energy(sigma->0) =     -780.61533120

 writing wavefunctions

 total charge

# of ion       s       p       d       tot
    1        0.782   1.287   0.000   2.069
    2        0.954   2.324   0.000   3.278
    3        0.691   1.028   0.000   1.719
    4        1.021   2.660   0.000   3.682
    5        0.932   2.260   0.000   3.191
    6        1.005   2.547   0.000   3.551
    7        0.603   0.824   0.000   1.427
    8        0.910   1.721   0.000   2.631
    9        0.995   2.505   0.000   3.500
   10        0.937   2.189   0.000   3.126
   11        0.700   1.067   0.000   1.767
   12        0.797   1.310   0.000   2.107
   13        0.991   2.484   0.000   3.475
   14        0.929   2.210   0.000   3.139
   15        0.934   2.183   0.000   3.117
   16        0.741   1.191   0.000   1.932
   17        0.912   1.999   0.000   2.911
   18        0.888   1.763   0.000   2.651
   19        0.682   1.008   0.000   1.690
   20        0.951   2.310   0.000   3.260
   21        0.759   1.245   0.000   2.004
   22        0.941   2.225   0.000   3.166
   23        0.767   1.256   0.000   2.023
   24        0.769   1.298   0.000   2.067
   25        0.944   2.232   0.000   3.176
   26        0.820   1.456   0.000   2.276
   27        0.621   0.855   0.000   1.476
   28        0.812   1.348   0.000   2.160
   29        0.919   2.206   0.000   3.125
   30        0.998   2.523   0.000   3.521
   31        1.001   2.576   0.000   3.577
   32        0.951   2.342   0.000   3.293
   33        0.782   1.347   0.000   2.129
   34        0.987   2.402   0.000   3.389
   35        0.924   2.040   0.000   2.963
   36        0.832   1.499   0.000   2.331
   37        0.662   0.981   0.000   1.643
   38        0.973   2.373   0.000   3.346
   39        0.965   2.308   0.000   3.273
   40        0.890   1.909   0.000   2.799
   41        0.862   1.674   0.000   2.535
   42        0.583   0.572   0.000   1.155
   43        0.900   1.996   0.000   2.896
   44        0.902   1.887   0.000   2.790
   45        0.961   2.198   0.000   3.158
   46        0.903   1.993   0.000   2.897
   47        0.570   0.524   0.000   1.093
   48        0.921   2.121   0.000   3.042
   49        0.856   1.667   0.000   2.524
   50        0.710   1.094   0.000   1.804
   51        0.973   2.357   0.000   3.330
   52        0.809   1.542   0.000   2.351
   53        0.980   2.432   0.000   3.412
   54        0.958   2.346   0.000   3.304
tot         46.559  97.694   0.000 144.254